problems/csplib-prob013/ProgressivePartyProblem-models/noch/O0/minion/model_2_1-Ian09-solution000001.eprime-solution
language ESSENCE' 1.0

letting aux1_Occurrence be
        [[true, true, true, true, true, true, false, false, false, false, false, false, false; int(1..13)],
         [true, true, true, true, true, true, false, false, false, false, false, false, false; int(1..13)],
         [true, true, true, true, true, true, false, false, false, false, false, false, false; int(1..13)],
         [true, true, true, true, true, true, false, false, false, false, false, false, false; int(1..13)],
         [true, true, true, true, true, true, false, false, false, false, false, false, false; int(1..13)];
             int(1..5)]
letting hosts_ExplicitVarSizeWithDummy be [1, 2, 3, 4, 5, 6, 14, 14, 14, 14, 14, 14, 14; int(1..13)]
letting sched_ExplicitR9_Function1D be
        [[1, 2, 3, 4, 5, 6, 1, 2, 2, 2, 3, 3, 3; int(1..13)], [1, 2, 3, 4, 5, 6, 2, 1, 3, 4, 1, 4, 5; int(1..13)],
         [1, 2, 3, 4, 5, 6, 3, 3, 1, 5, 2, 6, 4; int(1..13)], [1, 2, 3, 4, 5, 6, 4, 5, 4, 1, 6, 5, 2; int(1..13)],
         [1, 2, 3, 4, 5, 6, 5, 4, 6, 3, 5, 1, 6; int(1..13)];
             int(1..5)]
